n_trains = 15;
n_tracks = 4;
tracks = [{1},{2, 3},{4, 5, 6, 7, 8},{9, 10, 11, 12, 13, 14, 15}];
arrival_order = [1, 2, 3, 4, 5, 6, 7, 8, 9, 10, 11, 12, 13, 14, 15];
departure_order = [8, 7, 12, 3, 14, 2, 1, 15, 13, 11, 9, 6, 10, 5, 4];
